\ENCODING=ISO-8859-1
\Problem name: IloCplex

Minimize
 obj: 1.418073 id1 + 1.366182 id2 - 0.490565 id3 - 0.050447 id4 + 2.635145 id5
      + 0.284145 id6 + 1.819268 id7 + 1.516886 id8 - 0.090387 id9
      + 0.890001 id10 + 2.064525 id11 + 1.209327 id12 + 0.768686 id13
      + 1.146821 id14 + 1.516204 id15 - 0.561221 id16 + 0.41873 id17
      + 0.916523 id18 + 0.827118 id19 + id663
Subject To
 id24:  id1 - id5 - id8 - id12 - id15 - id18 <= 0
 id26:  - id1 + id5 - id8 - id12 - id15 - id18 <= 0
 id28:  - id1 - id5 + id8 - id12 - id15 - id18 <= 0
 id30:  - id1 - id5 - id8 + id12 - id15 - id18 <= 0
 id32:  - id1 - id5 - id8 - id12 + id15 - id18 <= 0
 id34:  - id1 - id5 - id8 - id12 - id15 + id18 <= 0
 id36:  id1 + id5 + id8 - id12 - id15 - id18 <= 2
 id38:  id1 + id5 - id8 + id12 - id15 - id18 <= 2
 id40:  id1 + id5 - id8 - id12 + id15 - id18 <= 2
 id42:  id1 + id5 - id8 - id12 - id15 + id18 <= 2
 id44:  id1 - id5 + id8 + id12 - id15 - id18 <= 2
 id46:  id1 - id5 + id8 - id12 + id15 - id18 <= 2
 id48:  id1 - id5 + id8 - id12 - id15 + id18 <= 2
 id50:  id1 - id5 - id8 + id12 + id15 - id18 <= 2
 id52:  id1 - id5 - id8 + id12 - id15 + id18 <= 2
 id54:  id1 - id5 - id8 - id12 + id15 + id18 <= 2
 id56:  - id1 + id5 + id8 + id12 - id15 - id18 <= 2
 id58:  - id1 + id5 + id8 - id12 + id15 - id18 <= 2
 id60:  - id1 + id5 + id8 - id12 - id15 + id18 <= 2
 id62:  - id1 + id5 - id8 + id12 + id15 - id18 <= 2
 id64:  - id1 + id5 - id8 + id12 - id15 + id18 <= 2
 id66:  - id1 + id5 - id8 - id12 + id15 + id18 <= 2
 id68:  - id1 - id5 + id8 + id12 + id15 - id18 <= 2
 id70:  - id1 - id5 + id8 + id12 - id15 + id18 <= 2
 id72:  - id1 - id5 + id8 - id12 + id15 + id18 <= 2
 id74:  - id1 - id5 - id8 + id12 + id15 + id18 <= 2
 id76:  id1 + id5 + id8 + id12 + id15 - id18 <= 4
 id78:  id1 + id5 + id8 + id12 - id15 + id18 <= 4
 id80:  id1 + id5 + id8 - id12 + id15 + id18 <= 4
 id82:  id1 + id5 - id8 + id12 + id15 + id18 <= 4
 id84:  id1 - id5 + id8 + id12 + id15 + id18 <= 4
 id86:  - id1 + id5 + id8 + id12 + id15 + id18 <= 4
 id88:  id2 - id6 - id9 - id11 - id15 - id19 <= 0
 id90:  - id2 + id6 - id9 - id11 - id15 - id19 <= 0
 id92:  - id2 - id6 + id9 - id11 - id15 - id19 <= 0
 id94:  - id2 - id6 - id9 + id11 - id15 - id19 <= 0
 id96:  - id2 - id6 - id9 - id11 + id15 - id19 <= 0
 id98:  - id2 - id6 - id9 - id11 - id15 + id19 <= 0
 id100: id2 + id6 + id9 - id11 - id15 - id19 <= 2
 id102: id2 + id6 - id9 + id11 - id15 - id19 <= 2
 id104: id2 + id6 - id9 - id11 + id15 - id19 <= 2
 id106: id2 + id6 - id9 - id11 - id15 + id19 <= 2
 id108: id2 - id6 + id9 + id11 - id15 - id19 <= 2
 id110: id2 - id6 + id9 - id11 + id15 - id19 <= 2
 id112: id2 - id6 + id9 - id11 - id15 + id19 <= 2
 id114: id2 - id6 - id9 + id11 + id15 - id19 <= 2
 id116: id2 - id6 - id9 + id11 - id15 + id19 <= 2
 id118: id2 - id6 - id9 - id11 + id15 + id19 <= 2
 id120: - id2 + id6 + id9 + id11 - id15 - id19 <= 2
 id122: - id2 + id6 + id9 - id11 + id15 - id19 <= 2
 id124: - id2 + id6 + id9 - id11 - id15 + id19 <= 2
 id126: - id2 + id6 - id9 + id11 + id15 - id19 <= 2
 id128: - id2 + id6 - id9 + id11 - id15 + id19 <= 2
 id130: - id2 + id6 - id9 - id11 + id15 + id19 <= 2
 id132: - id2 - id6 + id9 + id11 + id15 - id19 <= 2
 id134: - id2 - id6 + id9 + id11 - id15 + id19 <= 2
 id136: - id2 - id6 + id9 - id11 + id15 + id19 <= 2
 id138: - id2 - id6 - id9 + id11 + id15 + id19 <= 2
 id140: id2 + id6 + id9 + id11 + id15 - id19 <= 4
 id142: id2 + id6 + id9 + id11 - id15 + id19 <= 4
 id144: id2 + id6 + id9 - id11 + id15 + id19 <= 4
 id146: id2 + id6 - id9 + id11 + id15 + id19 <= 4
 id148: id2 - id6 + id9 + id11 + id15 + id19 <= 4
 id150: - id2 + id6 + id9 + id11 + id15 + id19 <= 4
 id152: id2 - id5 - id7 - id10 - id16 - id19 <= 0
 id154: - id2 + id5 - id7 - id10 - id16 - id19 <= 0
 id156: - id2 - id5 + id7 - id10 - id16 - id19 <= 0
 id158: - id2 - id5 - id7 + id10 - id16 - id19 <= 0
 id160: - id2 - id5 - id7 - id10 + id16 - id19 <= 0
 id162: - id2 - id5 - id7 - id10 - id16 + id19 <= 0
 id164: id2 + id5 + id7 - id10 - id16 - id19 <= 2
 id166: id2 + id5 - id7 + id10 - id16 - id19 <= 2
 id168: id2 + id5 - id7 - id10 + id16 - id19 <= 2
 id170: id2 + id5 - id7 - id10 - id16 + id19 <= 2
 id172: id2 - id5 + id7 + id10 - id16 - id19 <= 2
 id174: id2 - id5 + id7 - id10 + id16 - id19 <= 2
 id176: id2 - id5 + id7 - id10 - id16 + id19 <= 2
 id178: id2 - id5 - id7 + id10 + id16 - id19 <= 2
 id180: id2 - id5 - id7 + id10 - id16 + id19 <= 2
 id182: id2 - id5 - id7 - id10 + id16 + id19 <= 2
 id184: - id2 + id5 + id7 + id10 - id16 - id19 <= 2
 id186: - id2 + id5 + id7 - id10 + id16 - id19 <= 2
 id188: - id2 + id5 + id7 - id10 - id16 + id19 <= 2
 id190: - id2 + id5 - id7 + id10 + id16 - id19 <= 2
 id192: - id2 + id5 - id7 + id10 - id16 + id19 <= 2
 id194: - id2 + id5 - id7 - id10 + id16 + id19 <= 2
 id196: - id2 - id5 + id7 + id10 + id16 - id19 <= 2
 id198: - id2 - id5 + id7 + id10 - id16 + id19 <= 2
 id200: - id2 - id5 + id7 - id10 + id16 + id19 <= 2
 id202: - id2 - id5 - id7 + id10 + id16 + id19 <= 2
 id204: id2 + id5 + id7 + id10 + id16 - id19 <= 4
 id206: id2 + id5 + id7 + id10 - id16 + id19 <= 4
 id208: id2 + id5 + id7 - id10 + id16 + id19 <= 4
 id210: id2 + id5 - id7 + id10 + id16 + id19 <= 4
 id212: id2 - id5 + id7 + id10 + id16 + id19 <= 4
 id214: - id2 + id5 + id7 + id10 + id16 + id19 <= 4
 id216: id1 - id6 - id10 - id13 - id14 - id19 <= 0
 id218: - id1 + id6 - id10 - id13 - id14 - id19 <= 0
 id220: - id1 - id6 + id10 - id13 - id14 - id19 <= 0
 id222: - id1 - id6 - id10 + id13 - id14 - id19 <= 0
 id224: - id1 - id6 - id10 - id13 + id14 - id19 <= 0
 id226: - id1 - id6 - id10 - id13 - id14 + id19 <= 0
 id228: id1 + id6 + id10 - id13 - id14 - id19 <= 2
 id230: id1 + id6 - id10 + id13 - id14 - id19 <= 2
 id232: id1 + id6 - id10 - id13 + id14 - id19 <= 2
 id234: id1 + id6 - id10 - id13 - id14 + id19 <= 2
 id236: id1 - id6 + id10 + id13 - id14 - id19 <= 2
 id238: id1 - id6 + id10 - id13 + id14 - id19 <= 2
 id240: id1 - id6 + id10 - id13 - id14 + id19 <= 2
 id242: id1 - id6 - id10 + id13 + id14 - id19 <= 2
 id244: id1 - id6 - id10 + id13 - id14 + id19 <= 2
 id246: id1 - id6 - id10 - id13 + id14 + id19 <= 2
 id248: - id1 + id6 + id10 + id13 - id14 - id19 <= 2
 id250: - id1 + id6 + id10 - id13 + id14 - id19 <= 2
 id252: - id1 + id6 + id10 - id13 - id14 + id19 <= 2
 id254: - id1 + id6 - id10 + id13 + id14 - id19 <= 2
 id256: - id1 + id6 - id10 + id13 - id14 + id19 <= 2
 id258: - id1 + id6 - id10 - id13 + id14 + id19 <= 2
 id260: - id1 - id6 + id10 + id13 + id14 - id19 <= 2
 id262: - id1 - id6 + id10 + id13 - id14 + id19 <= 2
 id264: - id1 - id6 + id10 - id13 + id14 + id19 <= 2
 id266: - id1 - id6 - id10 + id13 + id14 + id19 <= 2
 id268: id1 + id6 + id10 + id13 + id14 - id19 <= 4
 id270: id1 + id6 + id10 + id13 - id14 + id19 <= 4
 id272: id1 + id6 + id10 - id13 + id14 + id19 <= 4
 id274: id1 + id6 - id10 + id13 + id14 + id19 <= 4
 id276: id1 - id6 + id10 + id13 + id14 + id19 <= 4
 id278: - id1 + id6 + id10 + id13 + id14 + id19 <= 4
 id280: id3 - id5 - id9 - id13 - id17 - id20 <= 0
 id282: - id3 + id5 - id9 - id13 - id17 - id20 <= 0
 id284: - id3 - id5 + id9 - id13 - id17 - id20 <= 0
 id286: - id3 - id5 - id9 + id13 - id17 - id20 <= 0
 id288: - id3 - id5 - id9 - id13 + id17 - id20 <= 0
 id290: - id3 - id5 - id9 - id13 - id17 + id20 <= 0
 id292: id3 + id5 + id9 - id13 - id17 - id20 <= 2
 id294: id3 + id5 - id9 + id13 - id17 - id20 <= 2
 id296: id3 + id5 - id9 - id13 + id17 - id20 <= 2
 id298: id3 + id5 - id9 - id13 - id17 + id20 <= 2
 id300: id3 - id5 + id9 + id13 - id17 - id20 <= 2
 id302: id3 - id5 + id9 - id13 + id17 - id20 <= 2
 id304: id3 - id5 + id9 - id13 - id17 + id20 <= 2
 id306: id3 - id5 - id9 + id13 + id17 - id20 <= 2
 id308: id3 - id5 - id9 + id13 - id17 + id20 <= 2
 id310: id3 - id5 - id9 - id13 + id17 + id20 <= 2
 id312: - id3 + id5 + id9 + id13 - id17 - id20 <= 2
 id314: - id3 + id5 + id9 - id13 + id17 - id20 <= 2
 id316: - id3 + id5 + id9 - id13 - id17 + id20 <= 2
 id318: - id3 + id5 - id9 + id13 + id17 - id20 <= 2
 id320: - id3 + id5 - id9 + id13 - id17 + id20 <= 2
 id322: - id3 + id5 - id9 - id13 + id17 + id20 <= 2
 id324: - id3 - id5 + id9 + id13 + id17 - id20 <= 2
 id326: - id3 - id5 + id9 + id13 - id17 + id20 <= 2
 id328: - id3 - id5 + id9 - id13 + id17 + id20 <= 2
 id330: - id3 - id5 - id9 + id13 + id17 + id20 <= 2
 id332: id3 + id5 + id9 + id13 + id17 - id20 <= 4
 id334: id3 + id5 + id9 + id13 - id17 + id20 <= 4
 id336: id3 + id5 + id9 - id13 + id17 + id20 <= 4
 id338: id3 + id5 - id9 + id13 + id17 + id20 <= 4
 id340: id3 - id5 + id9 + id13 + id17 + id20 <= 4
 id342: - id3 + id5 + id9 + id13 + id17 + id20 <= 4
 id344: id3 - id4 - id10 - id11 - id16 - id18 <= 0
 id346: - id3 + id4 - id10 - id11 - id16 - id18 <= 0
 id348: - id3 - id4 + id10 - id11 - id16 - id18 <= 0
 id350: - id3 - id4 - id10 + id11 - id16 - id18 <= 0
 id352: - id3 - id4 - id10 - id11 + id16 - id18 <= 0
 id354: - id3 - id4 - id10 - id11 - id16 + id18 <= 0
 id356: id3 + id4 + id10 - id11 - id16 - id18 <= 2
 id358: id3 + id4 - id10 + id11 - id16 - id18 <= 2
 id360: id3 + id4 - id10 - id11 + id16 - id18 <= 2
 id362: id3 + id4 - id10 - id11 - id16 + id18 <= 2
 id364: id3 - id4 + id10 + id11 - id16 - id18 <= 2
 id366: id3 - id4 + id10 - id11 + id16 - id18 <= 2
 id368: id3 - id4 + id10 - id11 - id16 + id18 <= 2
 id370: id3 - id4 - id10 + id11 + id16 - id18 <= 2
 id372: id3 - id4 - id10 + id11 - id16 + id18 <= 2
 id374: id3 - id4 - id10 - id11 + id16 + id18 <= 2
 id376: - id3 + id4 + id10 + id11 - id16 - id18 <= 2
 id378: - id3 + id4 + id10 - id11 + id16 - id18 <= 2
 id380: - id3 + id4 + id10 - id11 - id16 + id18 <= 2
 id382: - id3 + id4 - id10 + id11 + id16 - id18 <= 2
 id384: - id3 + id4 - id10 + id11 - id16 + id18 <= 2
 id386: - id3 + id4 - id10 - id11 + id16 + id18 <= 2
 id388: - id3 - id4 + id10 + id11 + id16 - id18 <= 2
 id390: - id3 - id4 + id10 + id11 - id16 + id18 <= 2
 id392: - id3 - id4 + id10 - id11 + id16 + id18 <= 2
 id394: - id3 - id4 - id10 + id11 + id16 + id18 <= 2
 id396: id3 + id4 + id10 + id11 + id16 - id18 <= 4
 id398: id3 + id4 + id10 + id11 - id16 + id18 <= 4
 id400: id3 + id4 + id10 - id11 + id16 + id18 <= 4
 id402: id3 + id4 - id10 + id11 + id16 + id18 <= 4
 id404: id3 - id4 + id10 + id11 + id16 + id18 <= 4
 id406: - id3 + id4 + id10 + id11 + id16 + id18 <= 4
 id408: id4 - id7 - id9 - id12 - id17 - id20 <= 0
 id410: - id4 + id7 - id9 - id12 - id17 - id20 <= 0
 id412: - id4 - id7 + id9 - id12 - id17 - id20 <= 0
 id414: - id4 - id7 - id9 + id12 - id17 - id20 <= 0
 id416: - id4 - id7 - id9 - id12 + id17 - id20 <= 0
 id418: - id4 - id7 - id9 - id12 - id17 + id20 <= 0
 id420: id4 + id7 + id9 - id12 - id17 - id20 <= 2
 id422: id4 + id7 - id9 + id12 - id17 - id20 <= 2
 id424: id4 + id7 - id9 - id12 + id17 - id20 <= 2
 id426: id4 + id7 - id9 - id12 - id17 + id20 <= 2
 id428: id4 - id7 + id9 + id12 - id17 - id20 <= 2
 id430: id4 - id7 + id9 - id12 + id17 - id20 <= 2
 id432: id4 - id7 + id9 - id12 - id17 + id20 <= 2
 id434: id4 - id7 - id9 + id12 + id17 - id20 <= 2
 id436: id4 - id7 - id9 + id12 - id17 + id20 <= 2
 id438: id4 - id7 - id9 - id12 + id17 + id20 <= 2
 id440: - id4 + id7 + id9 + id12 - id17 - id20 <= 2
 id442: - id4 + id7 + id9 - id12 + id17 - id20 <= 2
 id444: - id4 + id7 + id9 - id12 - id17 + id20 <= 2
 id446: - id4 + id7 - id9 + id12 + id17 - id20 <= 2
 id448: - id4 + id7 - id9 + id12 - id17 + id20 <= 2
 id450: - id4 + id7 - id9 - id12 + id17 + id20 <= 2
 id452: - id4 - id7 + id9 + id12 + id17 - id20 <= 2
 id454: - id4 - id7 + id9 + id12 - id17 + id20 <= 2
 id456: - id4 - id7 + id9 - id12 + id17 + id20 <= 2
 id458: - id4 - id7 - id9 + id12 + id17 + id20 <= 2
 id460: id4 + id7 + id9 + id12 + id17 - id20 <= 4
 id462: id4 + id7 + id9 + id12 - id17 + id20 <= 4
 id464: id4 + id7 + id9 - id12 + id17 + id20 <= 4
 id466: id4 + id7 - id9 + id12 + id17 + id20 <= 4
 id468: id4 - id7 + id9 + id12 + id17 + id20 <= 4
 id470: - id4 + id7 + id9 + id12 + id17 + id20 <= 4
 id472: id2 - id4 - id8 - id12 - id13 - id18 <= 0
 id474: - id2 + id4 - id8 - id12 - id13 - id18 <= 0
 id476: - id2 - id4 + id8 - id12 - id13 - id18 <= 0
 id478: - id2 - id4 - id8 + id12 - id13 - id18 <= 0
 id480: - id2 - id4 - id8 - id12 + id13 - id18 <= 0
 id482: - id2 - id4 - id8 - id12 - id13 + id18 <= 0
 id484: id2 + id4 + id8 - id12 - id13 - id18 <= 2
 id486: id2 + id4 - id8 + id12 - id13 - id18 <= 2
 id488: id2 + id4 - id8 - id12 + id13 - id18 <= 2
 id490: id2 + id4 - id8 - id12 - id13 + id18 <= 2
 id492: id2 - id4 + id8 + id12 - id13 - id18 <= 2
 id494: id2 - id4 + id8 - id12 + id13 - id18 <= 2
 id496: id2 - id4 + id8 - id12 - id13 + id18 <= 2
 id498: id2 - id4 - id8 + id12 + id13 - id18 <= 2
 id500: id2 - id4 - id8 + id12 - id13 + id18 <= 2
 id502: id2 - id4 - id8 - id12 + id13 + id18 <= 2
 id504: - id2 + id4 + id8 + id12 - id13 - id18 <= 2
 id506: - id2 + id4 + id8 - id12 + id13 - id18 <= 2
 id508: - id2 + id4 + id8 - id12 - id13 + id18 <= 2
 id510: - id2 + id4 - id8 + id12 + id13 - id18 <= 2
 id512: - id2 + id4 - id8 + id12 - id13 + id18 <= 2
 id514: - id2 + id4 - id8 - id12 + id13 + id18 <= 2
 id516: - id2 - id4 + id8 + id12 + id13 - id18 <= 2
 id518: - id2 - id4 + id8 + id12 - id13 + id18 <= 2
 id520: - id2 - id4 + id8 - id12 + id13 + id18 <= 2
 id522: - id2 - id4 - id8 + id12 + id13 + id18 <= 2
 id524: id2 + id4 + id8 + id12 + id13 - id18 <= 4
 id526: id2 + id4 + id8 + id12 - id13 + id18 <= 4
 id528: id2 + id4 + id8 - id12 + id13 + id18 <= 4
 id530: id2 + id4 - id8 + id12 + id13 + id18 <= 4
 id532: id2 - id4 + id8 + id12 + id13 + id18 <= 4
 id534: - id2 + id4 + id8 + id12 + id13 + id18 <= 4
 id536: id1 - id7 - id11 - id14 - id15 - id17 <= 0
 id538: - id1 + id7 - id11 - id14 - id15 - id17 <= 0
 id540: - id1 - id7 + id11 - id14 - id15 - id17 <= 0
 id542: - id1 - id7 - id11 + id14 - id15 - id17 <= 0
 id544: - id1 - id7 - id11 - id14 + id15 - id17 <= 0
 id546: - id1 - id7 - id11 - id14 - id15 + id17 <= 0
 id548: id1 + id7 + id11 - id14 - id15 - id17 <= 2
 id550: id1 + id7 - id11 + id14 - id15 - id17 <= 2
 id552: id1 + id7 - id11 - id14 + id15 - id17 <= 2
 id554: id1 + id7 - id11 - id14 - id15 + id17 <= 2
 id556: id1 - id7 + id11 + id14 - id15 - id17 <= 2
 id558: id1 - id7 + id11 - id14 + id15 - id17 <= 2
 id560: id1 - id7 + id11 - id14 - id15 + id17 <= 2
 id562: id1 - id7 - id11 + id14 + id15 - id17 <= 2
 id564: id1 - id7 - id11 + id14 - id15 + id17 <= 2
 id566: id1 - id7 - id11 - id14 + id15 + id17 <= 2
 id568: - id1 + id7 + id11 + id14 - id15 - id17 <= 2
 id570: - id1 + id7 + id11 - id14 + id15 - id17 <= 2
 id572: - id1 + id7 + id11 - id14 - id15 + id17 <= 2
 id574: - id1 + id7 - id11 + id14 + id15 - id17 <= 2
 id576: - id1 + id7 - id11 + id14 - id15 + id17 <= 2
 id578: - id1 + id7 - id11 - id14 + id15 + id17 <= 2
 id580: - id1 - id7 + id11 + id14 + id15 - id17 <= 2
 id582: - id1 - id7 + id11 + id14 - id15 + id17 <= 2
 id584: - id1 - id7 + id11 - id14 + id15 + id17 <= 2
 id586: - id1 - id7 - id11 + id14 + id15 + id17 <= 2
 id588: id1 + id7 + id11 + id14 + id15 - id17 <= 4
 id590: id1 + id7 + id11 + id14 - id15 + id17 <= 4
 id592: id1 + id7 + id11 - id14 + id15 + id17 <= 4
 id594: id1 + id7 - id11 + id14 + id15 + id17 <= 4
 id596: id1 - id7 + id11 + id14 + id15 + id17 <= 4
 id598: - id1 + id7 + id11 + id14 + id15 + id17 <= 4
 id600: id3 - id6 - id8 - id14 - id16 - id20 <= 0
 id602: - id3 + id6 - id8 - id14 - id16 - id20 <= 0
 id604: - id3 - id6 + id8 - id14 - id16 - id20 <= 0
 id606: - id3 - id6 - id8 + id14 - id16 - id20 <= 0
 id608: - id3 - id6 - id8 - id14 + id16 - id20 <= 0
 id610: - id3 - id6 - id8 - id14 - id16 + id20 <= 0
 id612: id3 + id6 + id8 - id14 - id16 - id20 <= 2
 id614: id3 + id6 - id8 + id14 - id16 - id20 <= 2
 id616: id3 + id6 - id8 - id14 + id16 - id20 <= 2
 id618: id3 + id6 - id8 - id14 - id16 + id20 <= 2
 id620: id3 - id6 + id8 + id14 - id16 - id20 <= 2
 id622: id3 - id6 + id8 - id14 + id16 - id20 <= 2
 id624: id3 - id6 + id8 - id14 - id16 + id20 <= 2
 id626: id3 - id6 - id8 + id14 + id16 - id20 <= 2
 id628: id3 - id6 - id8 + id14 - id16 + id20 <= 2
 id630: id3 - id6 - id8 - id14 + id16 + id20 <= 2
 id632: - id3 + id6 + id8 + id14 - id16 - id20 <= 2
 id634: - id3 + id6 + id8 - id14 + id16 - id20 <= 2
 id636: - id3 + id6 + id8 - id14 - id16 + id20 <= 2
 id638: - id3 + id6 - id8 + id14 + id16 - id20 <= 2
 id640: - id3 + id6 - id8 + id14 - id16 + id20 <= 2
 id642: - id3 + id6 - id8 - id14 + id16 + id20 <= 2
 id644: - id3 - id6 + id8 + id14 + id16 - id20 <= 2
 id646: - id3 - id6 + id8 + id14 - id16 + id20 <= 2
 id648: - id3 - id6 + id8 - id14 + id16 + id20 <= 2
 id650: - id3 - id6 - id8 + id14 + id16 + id20 <= 2
 id652: id3 + id6 + id8 + id14 + id16 - id20 <= 4
 id654: id3 + id6 + id8 + id14 - id16 + id20 <= 4
 id656: id3 + id6 + id8 - id14 + id16 + id20 <= 4
 id658: id3 + id6 - id8 + id14 + id16 + id20 <= 4
 id660: id3 - id6 + id8 + id14 + id16 + id20 <= 4
 id662: - id3 + id6 + id8 + id14 + id16 + id20 <= 4
Bounds
 0 <= id1 <= 1
 0 <= id2 <= 1
 0 <= id3 <= 1
 0 <= id4 <= 1
 0 <= id5 <= 1
 0 <= id6 <= 1
 0 <= id7 <= 1
 0 <= id8 <= 1
 0 <= id9 <= 1
 0 <= id10 <= 1
 0 <= id11 <= 1
 0 <= id12 <= 1
 0 <= id13 <= 1
 0 <= id14 <= 1
 0 <= id15 <= 1
 0 <= id16 <= 1
 0 <= id17 <= 1
 0 <= id18 <= 1
 0 <= id19 <= 1
      id663 = 0
 0 <= id20 <= 1
End
